-41.0 4.0 4.0 2.0 4.0 1.0 6.0 2.0 4.0 7.0 4.0 3.0 
4.0 -75.0 4.0 6.0 10.0 9.0 9.0 4.0 9.0 10.0 10.0 0.0 
4.0 4.0 -41.0 7.0 9.0 2.0 1.0 1.0 2.0 4.0 0.0 7.0 
2.0 6.0 7.0 -66.0 7.0 9.0 2.0 10.0 8.0 7.0 4.0 4.0 
4.0 10.0 9.0 7.0 -85.0 5.0 10.0 6.0 9.0 9.0 6.0 10.0 
1.0 9.0 2.0 9.0 5.0 -50.0 5.0 0.0 6.0 6.0 1.0 6.0 
6.0 9.0 1.0 2.0 10.0 5.0 -55.0 2.0 0.0 6.0 6.0 8.0 
2.0 4.0 1.0 10.0 6.0 0.0 2.0 -32.0 1.0 4.0 2.0 0.0 
4.0 9.0 2.0 8.0 9.0 6.0 0.0 1.0 -51.0 0.0 4.0 8.0 
7.0 10.0 4.0 7.0 9.0 6.0 6.0 4.0 0.0 -65.0 4.0 8.0 
4.0 10.0 0.0 4.0 6.0 1.0 6.0 2.0 4.0 4.0 -48.0 7.0 
3.0 0.0 7.0 4.0 10.0 6.0 8.0 0.0 8.0 8.0 7.0 -61.0 

